c "968140.clq"
p edge 140 544
e 1 5
e 1 6
e 1 7
e 1 8
e 1 10
e 1 11
e 1 12
e 1 13
e 1 15
e 1 21
e 1 27
e 1 45
e 1 50
e 1 57
e 1 104
e 1 117
e 1 126
e 1 133
e 2 5
e 2 7
e 2 10
e 2 11
e 2 19
e 2 25
e 2 31
e 2 54
e 2 72
e 2 75
e 2 77
e 2 99
e 2 107
e 2 124
e 3 5
e 3 6
e 3 8
e 3 9
e 3 12
e 3 13
e 3 15
e 3 16
e 3 17
e 3 18
e 3 19
e 3 29
e 3 34
e 3 47
e 3 51
e 3 59
e 3 63
e 3 75
e 3 81
e 3 84
e 3 85
e 3 96
e 3 99
e 3 100
e 3 121
e 3 127
e 3 130
e 3 135
e 3 140
e 4 5
e 4 6
e 4 9
e 4 26
e 4 31
e 4 46
e 4 74
e 4 131
e 5 6
e 5 7
e 5 8
e 5 16
e 5 20
e 5 23
e 5 37
e 5 40
e 5 41
e 5 48
e 5 52
e 5 56
e 5 62
e 5 64
e 5 74
e 5 84
e 5 87
e 5 98
e 5 101
e 5 102
e 5 112
e 5 117
e 6 7
e 6 9
e 6 12
e 6 18
e 6 19
e 6 35
e 6 46
e 6 57
e 6 61
e 6 68
e 6 78
e 6 82
e 6 105
e 6 140
e 7 8
e 7 13
e 7 14
e 7 19
e 7 21
e 7 23
e 7 24
e 7 27
e 7 33
e 7 35
e 7 39
e 7 41
e 7 48
e 7 51
e 7 53
e 7 54
e 7 62
e 7 70
e 7 73
e 7 75
e 7 80
e 7 86
e 7 90
e 7 102
e 7 118
e 7 119
e 7 123
e 7 126
e 7 129
e 7 133
e 8 9
e 8 10
e 8 11
e 8 12
e 8 14
e 8 18
e 8 20
e 8 29
e 8 30
e 8 32
e 8 34
e 8 37
e 8 44
e 8 46
e 8 49
e 8 65
e 8 70
e 8 79
e 8 82
e 8 87
e 8 88
e 8 94
e 8 105
e 8 107
e 8 114
e 8 116
e 8 136
e 8 139
e 9 10
e 9 11
e 9 14
e 9 17
e 9 18
e 9 20
e 9 22
e 9 28
e 9 34
e 9 38
e 9 40
e 9 43
e 9 46
e 9 63
e 9 68
e 9 71
e 9 72
e 9 81
e 9 89
e 9 93
e 9 94
e 9 95
e 9 103
e 9 106
e 9 107
e 9 114
e 9 120
e 9 122
e 9 131
e 9 136
e 9 138
e 10 13
e 10 21
e 10 24
e 10 26
e 10 35
e 10 36
e 10 53
e 10 54
e 10 62
e 10 68
e 10 86
e 10 93
e 10 110
e 10 134
e 11 15
e 11 22
e 11 23
e 11 25
e 11 28
e 11 30
e 11 33
e 11 37
e 11 38
e 11 39
e 11 45
e 11 48
e 11 50
e 11 55
e 11 58
e 11 61
e 11 67
e 11 70
e 11 72
e 11 78
e 11 82
e 11 85
e 11 87
e 11 103
e 11 113
e 11 134
e 11 135
e 11 138
e 12 14
e 12 35
e 12 40
e 12 48
e 12 50
e 12 83
e 12 113
e 12 114
e 12 133
e 13 32
e 13 50
e 13 61
e 13 76
e 14 15
e 14 16
e 14 17
e 14 21
e 14 22
e 14 23
e 14 24
e 14 26
e 14 27
e 14 28
e 14 44
e 14 52
e 14 64
e 14 80
e 14 90
e 14 92
e 14 112
e 14 131
e 15 16
e 15 17
e 15 20
e 15 22
e 15 25
e 15 28
e 15 47
e 15 53
e 15 73
e 15 76
e 15 78
e 15 97
e 15 115
e 15 116
e 15 119
e 15 129
e 16 37
e 16 51
e 16 55
e 16 58
e 16 69
e 16 74
e 16 81
e 16 97
e 16 99
e 16 102
e 16 111
e 16 120
e 16 129
e 17 53
e 17 60
e 17 125
e 18 33
e 18 36
e 18 42
e 18 65
e 18 94
e 18 98
e 18 100
e 18 113
e 18 119
e 18 135
e 19 25
e 19 55
e 19 60
e 19 68
e 19 84
e 19 101
e 19 134
e 20 29
e 20 36
e 20 41
e 20 43
e 20 59
e 20 92
e 20 114
e 20 118
e 20 121
e 20 139
e 21 26
e 21 33
e 21 42
e 21 59
e 21 61
e 21 66
e 21 76
e 21 94
e 21 131
e 22 24
e 22 32
e 22 38
e 22 39
e 22 43
e 22 71
e 22 78
e 22 127
e 23 30
e 23 31
e 23 34
e 23 44
e 23 73
e 23 87
e 23 95
e 23 110
e 23 112
e 24 124
e 25 31
e 25 36
e 25 58
e 25 83
e 25 113
e 25 123
e 25 128
e 25 137
e 25 138
e 26 27
e 26 128
e 26 139
e 27 43
e 27 45
e 27 49
e 27 85
e 27 133
e 28 29
e 28 41
e 28 44
e 28 56
e 28 63
e 28 67
e 28 92
e 28 104
e 28 125
e 29 30
e 29 49
e 29 69
e 29 75
e 29 76
e 29 90
e 29 96
e 30 32
e 30 38
e 30 47
e 30 132
e 31 40
e 31 58
e 31 91
e 31 97
e 31 105
e 31 132
e 32 104
e 33 42
e 33 55
e 33 60
e 33 70
e 33 71
e 33 73
e 34 47
e 34 115
e 34 122
e 34 128
e 35 45
e 36 57
e 36 106
e 37 63
e 37 115
e 38 39
e 38 51
e 38 56
e 38 57
e 38 140
e 39 54
e 39 66
e 39 95
e 39 96
e 39 123
e 39 129
e 40 52
e 40 77
e 40 132
e 41 42
e 41 89
e 41 103
e 42 109
e 42 137
e 43 86
e 43 103
e 43 109
e 44 81
e 46 49
e 46 52
e 46 60
e 46 67
e 47 92
e 47 126
e 48 56
e 48 59
e 48 69
e 48 83
e 48 88
e 48 91
e 49 82
e 50 91
e 50 100
e 50 125
e 51 93
e 51 97
e 51 110
e 52 65
e 52 69
e 52 89
e 52 100
e 53 83
e 53 108
e 53 119
e 53 120
e 54 67
e 54 96
e 54 124
e 55 107
e 56 62
e 56 65
e 56 84
e 56 137
e 56 140
e 57 64
e 57 77
e 57 88
e 57 90
e 57 108
e 59 88
e 60 66
e 61 64
e 61 74
e 61 105
e 61 111
e 64 66
e 64 79
e 64 98
e 64 120
e 65 79
e 65 126
e 66 72
e 67 112
e 68 89
e 68 99
e 68 111
e 68 118
e 68 121
e 69 71
e 69 98
e 69 101
e 70 85
e 70 127
e 71 86
e 71 102
e 71 104
e 72 122
e 73 109
e 74 77
e 74 80
e 74 108
e 74 115
e 74 117
e 75 108
e 76 91
e 76 93
e 77 79
e 77 80
e 77 101
e 78 138
e 84 111
e 84 130
e 85 95
e 85 121
e 85 124
e 89 125
e 91 137
e 94 116
e 94 117
e 95 127
e 95 136
e 96 106
e 99 118
e 100 130
e 102 106
e 104 116
e 104 122
e 107 109
e 109 110
e 109 128
e 109 134
e 110 130
e 112 123
e 117 132
e 117 136
e 122 139
e 132 135
